100 80 20
69 24
2 37
76 37
28 59
79 27
78 3
42 80
6 18
63 51
4 21
21 82
59 50
44 2
72 6
1 47
39 71
23 93
60 99
30 88
10 61
67 40
64 61
21 23
80 36
74 84
9 95
18 69
97 62
71 21
20 73
68 59
96 44
52 56
43 34
96 54
95 63
46 12
24 19
35 56
56 9
92 65
56 11
86 5
25 10
26 46
35 46
57 31
90 10
87 34
96 35
40 92
50 38
56 74
58 43
83 14
4 75
31 60
38 18
17 16
80 43
62 15
41 71
46 32
81 85
18 78
20 10
22 22
48 30
96 6
73 31
72 77
7 4
89 97
74 6
13 54
1 27
69 42
99 67
74 32
4 44
